
Gurobi 12.0.2 (win64) logging started Wed Nov 26 14:38:33 2025

Set parameter LogFile to value "resultados DATA_1_n20m10b2d2\instancia_7_log.txt"
Set parameter TimeLimit to value 3600
Gurobi Optimizer version 12.0.2 build v12.0.2rc0 (win64 - Windows 10.0 (19045.2))

CPU model: Intel(R) Core(TM) i5-6300U CPU @ 2.40GHz, instruction set [SSE2|AVX|AVX2]
Thread count: 2 physical cores, 4 logical processors, using up to 4 threads

Non-default parameters:
TimeLimit  3600

Optimize a model with 730 rows, 1314 columns and 183026 nonzeros
Model fingerprint: 0x4aa85bb1
Variable types: 0 continuous, 1314 integer (1314 binary)
Coefficient statistics:
  Matrix range     [1e+00, 1e+00]
  Objective range  [6e-02, 1e-01]
  Bounds range     [1e+00, 1e+00]
  RHS range        [1e+00, 7e+00]
Found heuristic solution: objective 0.5722500
Presolve removed 0 rows and 1022 columns
Presolve time: 0.20s
Presolved: 730 rows, 292 columns, 32094 nonzeros
Found heuristic solution: objective 0.2450000
Variable types: 0 continuous, 292 integer (292 binary)
Found heuristic solution: objective 0.6335000

Root relaxation: objective 9.023900e-01, 832 iterations, 0.08 seconds (0.08 work units)

    Nodes    |    Current Node    |     Objective Bounds      |     Work
 Expl Unexpl |  Obj  Depth IntInf | Incumbent    BestBd   Gap | It/Node Time

     0     0    0.90239    0  104    0.63350    0.90239  42.4%     -    0s
H    0     0                       0.7075000    0.90239  27.5%     -    0s
H    0     0                       0.8027500    0.90239  12.4%     -    0s
H    0     0                       0.8132500    0.90239  11.0%     -    0s
     0     0    0.89228    0   76    0.81325    0.89228  9.72%     -    0s
     0     0    0.89221    0   83    0.81325    0.89221  9.71%     -    0s
H    0     0                       0.8362500    0.89221  6.69%     -    0s
     0     0    0.89164    0   87    0.83625    0.89164  6.62%     -    0s
     0     0    0.89111    0   79    0.83625    0.89111  6.56%     -    0s
     0     0    0.89101    0   87    0.83625    0.89101  6.55%     -    1s
     0     0    0.89068    0   94    0.83625    0.89068  6.51%     -    1s
     0     0    0.89063    0   99    0.83625    0.89063  6.50%     -    1s
     0     0    0.89060    0  101    0.83625    0.89060  6.50%     -    1s
     0     0    0.89041    0  101    0.83625    0.89041  6.48%     -    1s
     0     0    0.89036    0   99    0.83625    0.89036  6.47%     -    1s
     0     0    0.88980    0  108    0.83625    0.88980  6.40%     -    1s
H    0     0                       0.8495000    0.88980  4.74%     -    1s
     0     0    0.88977    0  109    0.84950    0.88977  4.74%     -    1s
     0     0    0.88967    0  100    0.84950    0.88967  4.73%     -    1s
     0     0    0.88962    0  113    0.84950    0.88962  4.72%     -    1s
     0     0    0.88933    0   87    0.84950    0.88933  4.69%     -    1s
     0     0    0.88932    0   95    0.84950    0.88932  4.69%     -    1s
     0     0    0.88926    0  104    0.84950    0.88926  4.68%     -    1s
     0     0    0.88926    0  104    0.84950    0.88926  4.68%     -    1s
     0     0    0.88923    0   99    0.84950    0.88923  4.68%     -    1s
     0     0    0.88923    0  100    0.84950    0.88923  4.68%     -    1s
     0     0    0.88923    0  100    0.84950    0.88923  4.68%     -    1s
     0     0    0.88923    0   96    0.84950    0.88923  4.68%     -    1s
H    0     0                       0.8687500    0.88919  2.35%     -    2s
     0     0    0.88919    0   71    0.86875    0.88919  2.35%     -    2s
     0     0    0.88890    0   93    0.86875    0.88890  2.32%     -    2s
     0     0    0.88883    0   94    0.86875    0.88883  2.31%     -    2s
     0     0    0.88666    0   87    0.86875    0.88666  2.06%     -    2s
     0     0    0.88602    0   90    0.86875    0.88602  1.99%     -    2s
     0     0    0.88602    0   87    0.86875    0.88602  1.99%     -    3s
     0     0    0.88590    0   93    0.86875    0.88590  1.97%     -    3s
     0     0    0.88590    0   92    0.86875    0.88590  1.97%     -    3s
     0     0    0.88590    0   91    0.86875    0.88590  1.97%     -    3s
     0     0    0.88590    0   93    0.86875    0.88590  1.97%     -    3s
     0     0    0.88590    0   90    0.86875    0.88590  1.97%     -    3s
     0     0    0.88590    0   89    0.86875    0.88590  1.97%     -    3s
     0     0    0.88590    0   86    0.86875    0.88590  1.97%     -    3s
     0     0    0.88590    0   70    0.86875    0.88590  1.97%     -    3s
     0     0    0.88542    0   71    0.86875    0.88542  1.92%     -    3s
     0     0    0.88539    0   74    0.86875    0.88539  1.92%     -    3s
     0     0    0.88368    0   83    0.86875    0.88368  1.72%     -    3s
     0     0    0.88356    0   88    0.86875    0.88356  1.70%     -    3s
     0     0    0.88352    0   95    0.86875    0.88352  1.70%     -    3s
     0     0    0.88318    0   74    0.86875    0.88318  1.66%     -    4s
     0     0    0.88318    0   85    0.86875    0.88318  1.66%     -    4s
     0     0    0.88318    0   85    0.86875    0.88318  1.66%     -    4s
     0     0    0.88312    0   89    0.86875    0.88312  1.65%     -    4s
     0     0    0.88312    0   89    0.86875    0.88312  1.65%     -    4s
     0     0    0.88309    0   88    0.86875    0.88309  1.65%     -    4s
     0     0    0.88309    0   88    0.86875    0.88309  1.65%     -    4s
     0     0    0.88307    0   94    0.86875    0.88307  1.65%     -    4s
     0     0    0.88306    0   93    0.86875    0.88306  1.65%     -    4s
     0     2    0.88306    0   90    0.86875    0.88306  1.65%     -    4s
*   13    16               5       0.8705000    0.88299  1.43%   102    4s

Cutting planes:
  Gomory: 7
  Zero half: 32
  Mod-K: 4

Explored 108 nodes (11609 simplex iterations) in 4.67 seconds (3.74 work units)
Thread count was 4 (of 4 available processors)

Solution count 10: 0.8705 0.86875 0.8495 ... 0.245
No other solutions better than 0.8705

Optimal solution found (tolerance 1.00e-04)
Best objective 8.705000000000e-01, best bound 8.705000000000e-01, gap 0.0000%
